nsh = 100; % Number of ships
ship_size =  [1, 3, 1, 3, 2, 1, 3, 1, 1, 2, 1, 3, 1, 1, 3, 2, 3, 3, 1, 1, 2, 3, 2, 1, 2, 3, 3, 3, 1, 2, 2, 3, 1, 3, 1, 2, 1, 3, 1, 1, 1, 1, 1, 1, 1, 2, 1, 2, 3, 3, 2, 1, 1, 3, 2, 2, 3, 2, 1, 1, 2, 2, 1, 2, 1, 1, 2, 2, 1, 1, 1, 3, 2, 1, 1, 2, 3, 1, 3, 3, 2, 1, 1, 1, 2, 1, 3, 2, 1, 2, 1, 1, 2, 1, 1, 2, 1, 3, 1, 2]; % Each cell represents number of ship type

load_goods = [false, false, false, false, false, false, false, false, false, false, false, false, false, false, false, false, false, false, false, false, false, false, false, false, false, false, false, false, false, false, false, false, false, false, false, false, false, false, false, false, false, false, false, false, false, false, false, false, false, false, false, false, false, false, false, false, false, false, false, false, false, false, false, false, false, false, false, false, false, false, false, false, false, false, false, false, false, false, false, false, false, false, false, false, false, false, false, false, false, false, false, false, false, false, false, false, false, false, false, false];

maxtime = 96; % Time in the day is from 0 to 'maxtime'
arrival = [1, 2, 2, 2, 4, 6, 7, 8, 9, 11, 11, 13, 13, 15, 16, 16, 16, 18, 18, 20, 21, 21, 22, 22, 24, 24, 25, 27, 29, 29, 29, 30, 30, 30, 32, 35, 35, 36, 36, 36, 37, 38, 38, 38, 39, 39, 40, 42, 42, 43, 43, 43, 44, 45, 45, 45, 45, 45, 47, 47, 48, 53, 53, 54, 55, 55, 57, 57, 57, 57, 58, 59, 61, 61, 64, 65, 66, 68, 69, 71, 71, 73, 73, 74, 74, 74, 75, 76, 77, 77, 78, 78, 79, 82, 82, 84, 85, 87, 88, 91];
 % At what time the ships arrival
 
ship_types_number = 3; % How many types of ships is
ship_speed = [3, 2, 2]; % How fast ship is
ship_width = [1, 2, 2];
ship_length = [5, 10, 15];

reclaim_time = 2; % How fast reclaimer moves the containers from ship to platform

nr = 12; % Number of rails
nre = 41; % Number of reclaimers
platform_length = [14, 21, 21, 27, 27, 38, 38, 40, 14, 14, 20, 12];
platform_time = [3, 3, 2, 2, 2, 2, 2, 2, 2, 2, 1, 1]; % time required to arrive to the platform

reclaimers_number = [2, 2, 2, 3, 3, 7, 7, 10, 1, 1, 2, 1]; % amount of reclaimers at each platform
reclaimers_platform = [1, 1, 2, 2, 3, 3, 4, 4, 4, 5, 5, 5, 6, 6, 6, 6, 6, 6, 6, 7, 7, 7, 7, 7, 7, 7, 8, 8, 8, 8, 8, 8, 8, 8, 8, 8, 9, 10, 11, 11, 12]


% 1 unit of length -> 25m
% 1 unit of time -> 15min